 2296  1735
  939  2603
 4543   383
 5232    73
 1395  8609
 7016   664
 5266  1610
 7323  5781
 6242  3299
 4676  9146
 7989  6231
 4502  2926
 2515  2567
 9664  9399
 3661  9190
 2593  5339
 9481  4052
 6552  5285
 8972  4547
  733  3098
 8895  5828
 4957  7356
 4594  9191
 7312   753
 1857  7360
 4616  7741
 5240   651
 4075  4145
 1681  5893
  148  6557
